100 100
44 33
17 50
16 45
49 26
34 37
33 16
38 47
39 14
10 22
27 11
40 49
32 5
42 24
26 5
13 46
12 41
15 17
6 42
20 21
31 44
5 37
43 9
12 2
16 47
43 44
50 15
49 42
2 17
16 10
40 13
32 20
9 35
50 3
39 49
21 12
31 29
11 8
8 14
42 38
4 15
21 7
19 38
35 12
44 5
26 5
47 24
46 18
2 13
20 13
33 36
36 15
27 15
41 18
16 49
28 20
13 40
6 47
42 31
30 43
26 30
46 12
3 42
39 46
46 18
24 20
47 23
25 10
35 15
7 31
27 14
8 25
50 13
9 10
2 37
8 4
33 50
10 15
32 10
38 11
16 14
34 12
49 21
30 12
1 10
10 9
35 22
42 27
15 15
27 49
14 14
18 47
45 23
3 26
17 25
28 46
6 29
4 42
35 6
15 13
6 45
